    &BANDS
        prefix='Ge'
        outdir="./Raw_data/"
        filband="BandX.dat"
    /
    