    &control
        calculation = 'scf',
        restart_mode = 'from_scratch',
        pseudo_dir = './Raw_Inputs/',
        outdir = './Raw_data/',
        prefix = 'Sn'
    /
    &system    
        ibrav=2, celldm(1)=11, nat=2, ntyp=1,
        ecutwfc =12
    /
    &electrons
        conv_thr =  1.0d-8
        mixing_beta = 0.7
        diagonalization = 'david'
    /
    
    ATOMIC_SPECIES
    Sn   0   Sn.pbe-dn-rrkjus_psl.1.0.0.UPF 
    ATOMIC_POSITIONS
    Sn  0.00 0.00 0.00
    Sn  0.25 0.25 0.25
    K_POINTS  {automatic}
    4 4 4 0 0 0