    &control
        calculation = 'scf',
        restart_mode = 'from_scratch',
        pseudo_dir = './Raw_Inputs/',
        outdir = './Raw_data/',
        prefix = 'C'
    /
    &system    
        ibrav=2, celldm(1)=7.12, nat=2, ntyp=1,
        ecutwfc =20.0
    /
    &electrons
        conv_thr =  1.0d-8
        mixing_beta = 0.7
        diagonalization = 'david'
    /
    
    ATOMIC_SPECIES
    C   12.011   C.pbe-n-rrkjus_psl.1.0.0.UPF 
    ATOMIC_POSITIONS
    C  0.00 0.00 0.00
    C  0.25 0.25 0.25
    K_POINTS  {automatic}
    23 23 23 0 0 0